Cost: 500
0-1-22-20-35-36-3-28-31-26-8-27-0
0-4-13-41-40-19-42-44-17-0
0-18-25-14-24-43-7-23-6-0
0-5-38-9-10-39-33-15-37-12-0
0-11-16-34-21-29-2-32-0
Cost: 500
0-27-8-26-31-28-3-36-35-20-22-1-0
0-5-38-9-10-39-33-15-37-12-0
0-17-44-42-40-19-41-13-4-0
0-32-2-29-21-34-16-11-0
0-6-23-7-43-24-14-25-18-0
Cost: 500
0-1-22-20-35-36-3-28-31-26-8-27-0
0-4-13-41-40-19-42-44-17-0
0-18-25-14-24-43-7-23-6-0
0-5-38-9-10-39-33-15-37-12-0
0-11-16-34-21-29-2-32-0
Cost: 500
0-1-22-20-35-36-3-28-31-26-8-27-0
0-4-13-41-40-19-42-44-17-0
0-18-25-14-24-43-7-23-6-0
0-5-38-9-10-39-33-15-37-12-0
0-11-16-34-21-29-2-32-0
Cost: 500
0-1-22-20-35-36-3-28-31-26-8-27-0
0-4-13-41-40-19-42-44-17-0
0-18-25-14-24-43-7-23-6-0
0-5-38-9-10-39-33-15-37-12-0
0-11-16-34-21-29-2-32-0
Cost: 500
0-1-22-20-35-36-3-28-31-26-8-27-0
0-4-13-41-40-19-42-44-17-0
0-18-25-14-24-43-7-23-6-0
0-5-38-9-10-39-33-15-37-12-0
0-11-16-34-21-29-2-32-0
Cost: 500
0-1-22-20-35-36-3-28-31-26-8-27-0
0-4-13-41-40-19-42-44-17-0
0-18-25-14-24-43-7-23-6-0
0-5-38-9-10-39-33-15-37-12-0
0-11-16-34-21-29-2-32-0
Cost: 500
0-1-22-20-35-36-3-28-31-26-8-27-0
0-4-13-41-40-19-42-44-17-0
0-18-25-14-24-43-7-23-6-0
0-5-38-9-10-39-33-15-37-12-0
0-11-16-34-21-29-2-32-0
Cost: 500
0-1-22-20-35-36-3-28-31-26-8-27-0
0-4-13-41-40-19-42-44-17-0
0-18-25-14-24-43-7-23-6-0
0-5-38-9-10-39-33-15-37-12-0
0-11-16-34-21-29-2-32-0
Cost: 500
0-1-22-20-35-36-3-28-31-26-8-27-0
0-4-13-41-40-19-42-44-17-0
0-18-25-14-24-43-7-23-6-0
0-5-38-9-10-39-33-15-37-12-0
0-11-16-34-21-29-2-32-0
Cost: 500
0-1-22-20-35-36-3-28-31-26-8-27-0
0-12-37-15-33-39-10-9-38-5-0
0-32-2-29-21-34-16-11-0
0-18-25-14-24-43-7-23-6-0
0-4-13-41-40-19-42-44-17-0
Cost: 500
0-1-22-20-35-36-3-28-31-26-8-27-0
0-12-37-15-33-39-10-9-38-5-0
0-32-2-29-21-34-16-11-0
0-18-25-14-24-43-7-23-6-0
0-4-13-41-40-19-42-44-17-0
Cost: 500
0-1-22-20-35-36-3-28-31-26-8-27-0
0-12-37-15-33-39-10-9-38-5-0
0-32-2-29-21-34-16-11-0
0-18-25-14-24-43-7-23-6-0
0-4-13-41-40-19-42-44-17-0
Cost: 500
0-1-22-20-35-36-3-28-31-26-8-27-0
0-12-37-15-33-39-10-9-38-5-0
0-32-2-29-21-34-16-11-0
0-18-25-14-24-43-7-23-6-0
0-4-13-41-40-19-42-44-17-0
Cost: 500
0-1-22-20-35-36-3-28-31-26-8-27-0
0-12-37-15-33-39-10-9-38-5-0
0-32-2-29-21-34-16-11-0
0-18-25-14-24-43-7-23-6-0
0-4-13-41-40-19-42-44-17-0
Cost: 500
0-1-22-20-35-36-3-28-31-26-8-27-0
0-12-37-15-33-39-10-9-38-5-0
0-32-2-29-21-34-16-11-0
0-18-25-14-24-43-7-23-6-0
0-4-13-41-40-19-42-44-17-0
Cost: 500
0-1-22-20-35-36-3-28-31-26-8-27-0
0-12-37-15-33-39-10-9-38-5-0
0-32-2-29-21-34-16-11-0
0-18-25-14-24-43-7-23-6-0
0-4-13-41-40-19-42-44-17-0
Cost: 500
0-1-22-20-35-36-3-28-31-26-8-27-0
0-12-37-15-33-39-10-9-38-5-0
0-32-2-29-21-34-16-11-0
0-18-25-14-24-43-7-23-6-0
0-4-13-41-40-19-42-44-17-0
Cost: 500
0-1-22-20-35-36-3-28-31-26-8-27-0
0-12-37-15-33-39-10-9-38-5-0
0-32-2-29-21-34-16-11-0
0-18-25-14-24-43-7-23-6-0
0-4-13-41-40-19-42-44-17-0
Cost: 500
0-1-22-20-35-36-3-28-31-26-8-27-0
0-12-37-15-33-39-10-9-38-5-0
0-32-2-29-21-34-16-11-0
0-18-25-14-24-43-7-23-6-0
0-4-13-41-40-19-42-44-17-0
Cost: 500
0-1-22-20-35-36-3-28-31-26-8-27-0
0-12-37-15-33-39-10-9-38-5-0
0-32-2-29-21-34-16-11-0
0-18-25-14-24-43-7-23-6-0
0-4-13-41-40-19-42-44-17-0
Cost: 500
0-1-22-20-35-36-3-28-31-26-8-27-0
0-12-37-15-33-39-10-9-38-5-0
0-32-2-29-21-34-16-11-0
0-18-25-14-24-43-7-23-6-0
0-4-13-41-40-19-42-44-17-0
Cost: 500
0-27-8-26-31-28-3-36-35-20-22-1-0
0-12-37-15-33-39-10-9-38-5-0
0-32-2-29-21-34-16-11-0
0-17-44-42-19-40-41-13-4-0
0-6-23-7-43-24-14-25-18-0
Cost: 500
0-1-22-20-35-36-3-28-31-26-8-27-0
0-12-37-15-33-39-10-9-38-5-0
0-32-2-29-21-34-16-11-0
0-18-25-14-24-43-7-23-6-0
0-4-13-41-40-19-42-44-17-0
Cost: 500
0-1-22-20-35-36-3-28-31-26-8-27-0
0-12-37-15-33-39-10-9-38-5-0
0-32-2-29-21-34-16-11-0
0-18-25-14-24-43-7-23-6-0
0-4-13-41-40-19-42-44-17-0
Cost: 500
0-1-22-20-35-36-3-28-31-26-8-27-0
0-12-37-15-33-39-10-9-38-5-0
0-32-2-29-21-34-16-11-0
0-18-25-14-24-43-7-23-6-0
0-4-13-41-40-19-42-44-17-0
Cost: 500
0-27-8-26-31-28-3-36-35-20-22-1-0
0-4-13-41-40-19-42-44-17-0
0-6-23-7-43-24-14-25-18-0
0-11-16-34-21-29-2-32-0
0-5-38-9-10-39-33-15-37-12-0
Cost: 500
0-32-2-29-21-34-16-11-0
0-4-13-41-40-19-42-44-17-0
0-12-37-15-33-39-10-9-38-5-0
0-18-25-14-24-43-7-23-6-0
0-27-8-26-31-28-3-36-35-20-22-1-0
Cost: 500
0-17-44-42-19-40-41-13-4-0
0-12-37-15-33-39-10-9-38-5-0
0-11-16-34-21-29-2-32-0
0-27-8-26-31-28-3-36-35-20-22-1-0
0-18-25-14-24-43-7-23-6-0
Cost: 500
0-18-25-14-24-43-7-23-6-0
0-17-44-42-19-40-41-13-4-0
0-32-2-29-21-34-16-11-0
0-27-8-26-31-28-3-36-35-20-22-1-0
0-5-38-9-10-39-33-15-37-12-0
Cost: 500
0-11-16-34-21-29-2-32-0
0-12-37-15-33-39-10-9-38-5-0
0-4-13-41-40-19-42-44-17-0
0-27-8-26-31-28-3-36-35-20-22-1-0
0-6-23-7-43-24-14-25-18-0
